RLW05
Position Depot: Center
Horizon for Depot: Large
Position of customers: Random
Distribution of the demand: Large
Width of time windows: Wide
Distribution of the service: Small

VEHICLE 
NUMBER 	 CAPACITY 
 7 	 	 386 
 
CUSTOMER
CUST NO. 	 XCOORD.  	 YCOORD. 	 DEMAND 	 READY TIME 	 DUE DATE 	 SERVICE TIME 
 0 	 	 500 	 	 500 	 	 0 	 	 0 	 	 3463 	 	 0 
  1 	 	 435 	 	 463 	 	 87 	 	 1264 	 	 1742 	 	 62 
  2 	 	 817 	 	 493 	 	 93 	 	 131 	 	 462 	 	 76 
  3 	 	 206 	 	 8 	 	 96 	 	 1982 	 	 2376 	 	 82 
  4 	 	 897 	 	 498 	 	 10 	 	 1422 	 	 1883 	 	 100 
  5 	 	 592 	 	 598 	 	 55 	 	 -26 	 	 354 	 	 79 
  6 	 	 6 	 	 194 	 	 39 	 	 2749 	 	 2951 	 	 84 
  7 	 	 122 	 	 841 	 	 39 	 	 1918 	 	 2279 	 	 99 
  8 	 	 556 	 	 660 	 	 74 	 	 2086 	 	 2430 	 	 83 
  9 	 	 421 	 	 555 	 	 67 	 	 1423 	 	 1920 	 	 69 
  10 	 	 463 	 	 309 	 	 17 	 	 1859 	 	 2286 	 	 87 
  11 	 	 143 	 	 563 	 	 99 	 	 502 	 	 831 	 	 90 
  12 	 	 9 	 	 434 	 	 95 	 	 2464 	 	 2953 	 	 52 
  13 	 	 377 	 	 430 	 	 52 	 	 1048 	 	 1257 	 	 55 
  14 	 	 947 	 	 92 	 	 1 	 	 1401 	 	 1738 	 	 79 
  15 	 	 278 	 	 815 	 	 48 	 	 2381 	 	 2827 	 	 99 
  16 	 	 344 	 	 397 	 	 59 	 	 3161 	 	 3420 	 	 80 
  17 	 	 363 	 	 148 	 	 54 	 	 502 	 	 711 	 	 61 
  18 	 	 833 	 	 266 	 	 48 	 	 346 	 	 693 	 	 76 
  19 	 	 264 	 	 961 	 	 66 	 	 968 	 	 1383 	 	 94 
  20 	 	 280 	 	 443 	 	 43 	 	 2958 	 	 3406 	 	 63 
  21 	 	 732 	 	 849 	 	 63 	 	 1437 	 	 1854 	 	 55 
  22 	 	 65 	 	 132 	 	 27 	 	 453 	 	 770 	 	 96 
  23 	 	 26 	 	 105 	 	 33 	 	 414 	 	 859 	 	 99 
  24 	 	 975 	 	 101 	 	 52 	 	 2513 	 	 2808 	 	 50 
  25 	 	 91 	 	 437 	 	 79 	 	 -26 	 	 455 	 	 63 
  26 	 	 547 	 	 432 	 	 45 	 	 66 	 	 318 	 	 97 
  27 	 	 566 	 	 695 	 	 54 	 	 3203 	 	 3463 	 	 66 
  28 	 	 700 	 	 285 	 	 23 	 	 1852 	 	 2076 	 	 100 
  29 	 	 219 	 	 693 	 	 83 	 	 157 	 	 556 	 	 57 
  30 	 	 684 	 	 458 	 	 38 	 	 2563 	 	 3023 	 	 81 
  31 	 	 926 	 	 402 	 	 15 	 	 2259 	 	 2704 	 	 56 
  32 	 	 152 	 	 395 	 	 79 	 	 2724 	 	 3027 	 	 60 
  33 	 	 533 	 	 263 	 	 54 	 	 2807 	 	 3281 	 	 68 
  34 	 	 889 	 	 504 	 	 82 	 	 2985 	 	 3463 	 	 63 
  35 	 	 807 	 	 777 	 	 80 	 	 1156 	 	 1604 	 	 56 
  36 	 	 8 	 	 775 	 	 94 	 	 2503 	 	 2880 	 	 95 
  37 	 	 273 	 	 57 	 	 70 	 	 2348 	 	 2773 	 	 69 
  38 	 	 778 	 	 925 	 	 13 	 	 706 	 	 1166 	 	 67 
  39 	 	 276 	 	 723 	 	 32 	 	 1548 	 	 1823 	 	 58 
  40 	 	 262 	 	 199 	 	 53 	 	 2182 	 	 2411 	 	 84 
  41 	 	 854 	 	 623 	 	 66 	 	 403 	 	 814 	 	 67 
  42 	 	 286 	 	 491 	 	 90 	 	 1084 	 	 1420 	 	 81 
  43 	 	 219 	 	 510 	 	 48 	 	 2233 	 	 2673 	 	 65 
  44 	 	 346 	 	 180 	 	 78 	 	 2962 	 	 3254 	 	 97 
  45 	 	 901 	 	 594 	 	 89 	 	 1610 	 	 2083 	 	 59 
  46 	 	 59 	 	 516 	 	 42 	 	 2029 	 	 2298 	 	 91 
  47 	 	 779 	 	 831 	 	 28 	 	 1065 	 	 1517 	 	 80 
  48 	 	 337 	 	 121 	 	 17 	 	 407 	 	 738 	 	 64 
  49 	 	 90 	 	 650 	 	 69 	 	 3238 	 	 3463 	 	 86 
  50 	 	 176 	 	 701 	 	 15 	 	 682 	 	 1170 	 	 62 
 